% File represents an instance of a Composite Structure problem to be solved by a CP framework
% Created on 2025-03-26 10:42:14.895
T = 56;
n = 36;
m = 60;
edges = [(2, 1),
(8, 7),
(14, 13),
(20, 19),
(26, 25),
(32, 31),
(3, 2),
(9, 8),
(15, 14),
(21, 20),
(27, 26),
(32, 33),
(4, 3),
(10, 9),
(16, 15),
(22, 21),
(27, 28),
(34, 33),
(4, 5),
(11, 10),
(17, 16),
(23, 22),
(29, 28),
(34, 35),
(6, 5),
(12, 11),
(18, 17),
(24, 23),
(30, 29),
(36, 35),
(1, 7),
(7, 13),
(13, 19),
(25, 19),
(31, 25),
(2, 8),
(8, 14),
(14, 20),
(26, 20),
(32, 26),
(3, 9),
(9, 15),
(15, 21),
(27, 21),
(27, 33),
(4, 10),
(10, 16),
(16, 22),
(22, 28),
(34, 28),
(11, 5),
(11, 17),
(17, 23),
(23, 29),
(35, 29),
(12, 6),
(12, 18),
(18, 24),
(24, 30),
(36, 30)];
counts = [|4, 12, 4, 14,
|4, 14, 4, 18,
|4, 14, 4, 22,
|6, 16, 6, 22,
|6, 12, 6, 22,
|6, 16, 6, 24,
|4, 10, 4, 14,
|4, 14, 4, 16,
|4, 14, 4, 18,
|4, 16, 4, 22,
|6, 16, 6, 22,
|6, 16, 6, 28,
|4, 8, 4, 12,
|4, 10, 4, 16,
|4, 14, 4, 16,
|4, 14, 4, 22,
|4, 16, 4, 22,
|6, 16, 6, 22,
|2, 8, 2, 12,
|4, 10, 4, 12,
|4, 14, 4, 14,
|4, 14, 4, 16,
|4, 14, 4, 18,
|4, 16, 4, 20,
|4, 8, 4, 14,
|4, 10, 4, 16,
|4, 14, 4, 16,
|2, 14, 2, 14,
|2, 14, 2, 16,
|2, 16, 2, 18,
|4, 8, 4, 16,
|4, 14, 4, 16,
|2, 14, 2, 16,
|2, 16, 2, 18,
|2, 16, 2, 16,
|2, 18, 2, 20|];
